Na108 Cl108
1.0
16.9199999999999982 0.0000000000000004 0.0000000000000004
0.0000000000000004 16.9199999999999982 -0.0000000000000004
-0.0000000000000004 -0.0000000000000004 16.9199999999999982
Na Cl
108 108
cartesian
0.0598290033022141 5.6356939882207202 5.6386040679026621 Na
2.8129768472065528 8.4054794939595059 5.6159544235683869 Na
2.7694734390565130 5.6390813208779003 8.4923453654778385 Na
11.2657559286071862 5.5841607926118337 5.6232940325506746 Na
14.0850357600749039 8.4499700282390116 5.5827682676311641 Na
16.9153962020126940 11.2888911739138109 5.6991587024073915 Na
2.7963935983898613 14.1016673628615177 5.6951358114487203 Na
14.1118511349511788 5.6912781185226402 8.4888115456223190 Na
16.9081659900782242 8.4898203674351915 8.4092979103467957 Na
2.7895311805524652 11.3316692952957752 8.4586089697661304 Na
0.0007018158438332 5.6940143630782041 11.3061142879622860 Na
2.8640267872339131 8.4505336805731837 11.3196488436447869 Na
2.7741219948263525 5.6721704052582140 14.0785460104686955 Na
5.6683842274697120 5.6920490490496469 5.6307678754354740 Na
8.4908785156486495 8.4588812967606728 5.6914321472855089 Na
11.2452035352833377 11.3005822546335235 5.6843348264620808 Na
14.0627974311192006 14.0615226699862657 5.6128805615160697 Na
0.0381419246922945 0.0114742248826521 5.6848724385799292 Na
2.7975608327439261 2.7643701305176993 5.6413421602872402 Na
8.4803378757070451 5.6958275878354332 8.4683457323346563 Na
11.2649317752654294 8.4423551504914496 8.4046682018259915 Na
14.0937110569261836 11.2265471715084075 8.4865187541423577 Na
16.8951519247146820 14.0630284743508422 8.4198044847552715 Na
2.8774000941666662 16.9181265908149392 8.4426299243616238 Na
11.2343479203526577 5.6723793796035595 11.2583790980678096 Na
14.0430820140410564 8.4497141141328047 11.2640455828591310 Na
16.9141627492972191 11.2728518782325278 11.3392860089686422 Na
2.8379858705867997 14.0709894952699397 11.2306553034811021 Na
14.1332637560670893 5.6749837389420668 14.0643677036672869 Na
16.9188578530007590 8.4253473341484124 14.0510317628496733 Na
2.8220912938210847 11.3289152536911306 14.1346832012145054 Na
16.8732876543021817 5.6753472812079542 16.9070182254443431 Na
2.7877458250574501 8.4861693256190556 0.0432993602195152 Na
2.8725078949166059 5.6688447489889757 2.8233017309384061 Na
5.5909969044498888 11.2478244230892788 5.6272160695805535 Na
8.4037600646156143 14.1176295525146234 5.6287630722128199 Na
11.2658949781159414 16.8742087584563123 5.6761138554510318 Na
14.0962239452078162 2.7603287576461084 5.6450084175295094 Na
5.6811496902090273 8.4426273255854323 8.5000611180496310 Na
8.4508352364781345 11.2250065111118680 8.4821748345991441 Na
11.2962686244815167 14.0431600330284905 8.4702249700320955 Na
14.0870236728813225 0.0562855561242401 8.4437657428166801 Na
0.0342550440834490 2.8546994544311572 8.4949648368653516 Na
5.5969193895813572 5.6122463025692664 11.3112056611030809 Na
8.4430948292360224 8.4090559810859453 11.3068127234410305 Na
11.2663728147859050 11.3368172574044159 11.2663581861843465 Na
14.1225377628832440 14.0871698022207497 11.3341057785191541 Na
16.8635914069896593 16.9003097367123480 11.2855103689764604 Na
2.7752232375276402 2.8452970928038894 11.3109046701675524 Na
8.4250454420617658 5.6259128475745142 14.1466875895274491 Na
11.3166018448793047 8.4944516514124864 14.0672373892007396 Na
14.1460380722271726 11.2417073661960085 14.1037643195877660 Na
0.0411431187445044 14.1436469614112532 14.0985213047845672 Na
2.8432155148217744 16.8874781301612558 14.1447589974614214 Na
11.2232534107192929 5.6205238935186905 0.0007112533555009 Na
14.0936151086125125 8.4980371507437944 0.0459609434766493 Na
16.8623452593820495 11.2833707797173641 16.9037344312004087 Na
2.7982970642254217 14.1255370772229920 0.0497678637844897 Na
14.1245155980679389 5.5961172380984738 2.7872389154748265 Na
0.0547383880242707 8.4424346612912409 2.8371804468088220 Na
2.7843165464706972 11.2322317046389042 2.8133006640241369 Na
5.6932464138308925 0.0228300899084103 5.6556078957237395 Na
8.4757327759255769 2.7714776677010411 5.6715921355711396 Na
5.6956745723597964 14.0995105864961285 8.4823629708888593 Na
8.4199000879911008 16.8836740744340297 8.4859311432191920 Na
11.3310673363295535 2.7931213380462476 8.4435785295487875 Na
5.6941707707851679 11.3053700996112028 11.2753217911271246 Na
8.4875707141340762 14.1237554033065269 11.2322974158364435 Na
11.3388075734659157 0.0104767989598111 11.2743514615513050 Na
14.1342547652677464 2.8049307545210089 11.2331008646439443 Na
5.6880976772882450 8.4473809916277585 14.1335763915151240 Na
8.4572176526086693 11.2818275790313720 14.1599075829747605 Na
11.3375857397199695 14.1015334711679579 14.0832211130559646 Na
14.0452898676722100 0.0155671813766516 14.0809090522848521 Na
16.8745194214583023 2.8512093835795467 14.1236112547759944 Na
5.6278455574947106 5.6358386405946961 0.0586084688017479 Na
8.4013364768699574 8.4511345223156891 16.9110560434146784 Na
11.2336588249830314 11.2546703236070726 16.8915236415271117 Na
14.1286429415019121 14.0581117952370622 0.0320149996697840 Na
0.0207642042664161 0.0525420228312390 0.0202035555777716 Na
2.8281621550091485 2.8755968980566635 0.0210324547327026 Na
8.4147102722597396 5.6463712406557773 2.7811638331742232 Na
11.3103350180039186 8.4124420095901993 2.8404456408772867 Na
14.0988281925467529 11.2946786373790644 2.7618350236655536 Na
0.0189604289307469 14.0738897896196118 2.8705841778489440 Na
2.8480139142885301 0.0075845730056211 2.7674862412451988 Na
5.6983799269489772 2.8113490162390402 8.4491859069081308 Na
5.6322721753379126 0.0411814885132199 11.3229460793301016 Na
8.4368191661917109 2.7737021298231275 11.3103175883117082 Na
5.6051010507511778 14.1395641919277519 14.0714213705991309 Na
8.4489096406988295 16.8643653888033143 14.0804604511934208 Na
11.3085257360202309 2.7755115684986840 14.1284088339615863 Na
5.6284526222846161 11.2211360701324381 0.0013022397801787 Na
8.4063004398858840 14.0929337126181959 0.0258152053291911 Na
11.3114862761969590 0.0008379404472269 0.0510677223601721 Na
14.0833220236830030 2.8479848768287761 0.0503854321689106 Na
5.6713619738066745 8.4495814599948691 2.8700787442245779 Na
8.4548956524091370 11.3384032609903844 2.8327673310194648 Na
11.2465985708740615 14.1423348498085897 2.7936921109925312 Na
14.0974048177693430 16.8615465665013282 2.8067161322873919 Na
0.0153796201766305 2.8052777729972989 2.7639043378209691 Na
5.6638076086923252 2.8690137326929133 14.0748832371540367 Na
5.6964561751408791 0.0201910246002314 16.9177588364506235 Na
8.4305097713468928 2.8524460165738281 16.8790416989795879 Na
5.6056534518219649 14.1111032501824774 2.7720726334581220 Na
8.5171207397240210 0.0165942898683039 2.8278645176042270 Na
11.2597267587215804 2.7723158195346369 2.7897474857009508 Na
5.6285020764320119 2.8374688006460529 2.7637626569118598 Na
14.1039464498243863 2.8143706790937464 2.7603951656329953 Cl
16.9171187170369031 5.6847788475370455 2.8598315581133917 Cl
0.0426498005173114 2.8609250437854294 5.6296978008661238 Cl
8.4811297720692416 2.7782138441999780 2.7824840045346253 Cl
11.2651724775473703 5.6910202819638886 2.7921239277113501 Cl
14.0407583243081202 8.4516740022499732 2.8245936502571380 Cl
16.8757862011494701 11.2785295118132503 2.8605336607734584 Cl
11.2792737682014153 2.8695712043046124 5.6737959803995262 Cl
14.1258508465540995 5.6119864831259187 5.5936645211011911 Cl
0.0567051526578189 8.4772964610313686 5.6307610553717904 Cl
14.1573087069647752 2.8373193336702980 8.4639689781105680 Cl
0.0365792204933164 5.6170154987636947 8.5016374030292390 Cl
16.8761943280755240 2.8522354674513393 11.3053364903930866 Cl
2.8252016341432795 2.7676664500138535 2.8488815260692166 Cl
5.6727366074344898 5.6901386365991335 2.8237989016386220 Cl
8.4910712123021987 8.4603585134572512 2.8713269055581212 Cl
11.3183031919335875 11.2853129775476830 2.8658763311226627 Cl
14.0644669413345582 14.1457001472973101 2.8042234896481362 Cl
16.8952246981392662 16.8749986623222838 2.7889989673570983 Cl
5.6562506145364457 2.8295284452488016 5.6969660096753163 Cl
8.4836037910873472 5.6377354815624532 5.5848843669858468 Cl
11.3344428707922376 8.4602115419342141 5.6652176341061073 Cl
14.1472755622725828 11.2481932016568678 5.6587975740714223 Cl
16.8933397484534567 14.1039929899285692 5.6936030504626869 Cl
8.4953135144893430 2.7792070855975264 8.4862467870217149 Cl
11.2861979685875689 5.6579666891856526 8.4030896910472830 Cl
14.1273982829793585 8.4402461705869829 8.5095895181797960 Cl
0.0233074803068369 11.2250305016976899 8.4659258432428413 Cl
11.2588968009502945 2.8279523508554223 11.2243995044469820 Cl
14.1422908873915176 5.6671676373801594 11.3127627886911029 Cl
16.8849861574011193 8.5041498169192646 11.3006112710053674 Cl
14.0565557986868672 2.8589332546512027 14.0859713487986689 Cl
0.0405579461731216 5.5970584727675678 14.0894606337398951 Cl
0.0581197155493854 2.8113768659843892 16.9078451563478858 Cl
2.8699840748277268 8.4811984199392487 2.7944614163334127 Cl
5.5970929118883062 11.2665763684707443 2.7802660358592024 Cl
8.4046560829456549 14.0771102039972860 2.8236205088090522 Cl
11.3280350318711722 16.9162840247067976 2.7842393059245842 Cl
2.8752895778775196 5.6622524395107421 5.6330796305050761 Cl
5.6252759387155313 8.5111434533632870 5.6677046782578042 Cl
8.5174882169162043 11.2863794286168755 5.6559501663413716 Cl
11.2652152633630465 14.1125877593304505 5.5832288816596440 Cl
14.1112086066711999 0.0224241157569689 5.5854882932847580 Cl
2.8551624026038103 2.8044640222757162 8.4139322364415392 Cl
5.5983218649544551 5.6537964971048380 8.5008973070844700 Cl
8.5023172907700957 8.4269367154406627 8.4867594117279790 Cl
11.2815876643532764 11.3254779309233555 8.4991054615217845 Cl
14.1145611964566449 14.0944132486968510 8.4020624494163947 Cl
16.8823252500041505 0.0191731189954776 8.4174206068533639 Cl
5.6063608750306919 2.8082577343950197 11.3282755473274115 Cl
8.4398800870298025 5.5964488333683011 11.3160344971810307 Cl
11.2259795868169618 8.4359131319701230 11.2900805628833556 Cl
14.1373884238824239 11.3183331460764549 11.3070679824048437 Cl
0.0158029714952993 14.1453619100022472 11.2440477648418522 Cl
8.4283303749270377 2.7822734270476182 14.1342598969789268 Cl
11.2762532004517038 5.6439010359649622 14.0402443022671033 Cl
14.1315039480479196 8.5097730802263793 14.1114079683630411 Cl
16.8610457589033622 11.2692324671750335 14.0970917885937386 Cl
11.2662261793460310 2.8411102747511383 16.8655515090702757 Cl
14.0943586017494660 5.6000696311286795 0.0444267967287681 Cl
16.8652405572113757 8.4359447770826037 0.0047696620293129 Cl
2.8557069090830254 14.1431839094402054 2.8414514943348075 Cl
5.5972624569231550 16.9065773939931923 2.7800833861688989 Cl
2.8216112366821675 11.3349376286654699 5.6640678389758756 Cl
5.6190467145488210 14.1018047587982238 5.6961934397815401 Cl
8.4825510157910298 0.0160491703789350 5.5867658397554676 Cl
2.8696192524851423 8.4930262619462482 8.4668699202814253 Cl
5.6321002237805304 11.3340910120172076 8.4352662992126799 Cl
8.4067338910532960 14.1073653973074880 8.4333828521403760 Cl
11.2857182963630187 16.9098639855101283 8.4011394674084059 Cl
2.8191901783490771 5.6095065629381997 11.3316671509283360 Cl
5.6109923754651208 8.5084622074853744 11.2597522306293278 Cl
8.4144675535009519 11.2495655095689990 11.2554941209499226 Cl
11.3108400254926416 14.1018084995095165 11.2285643882398833 Cl
14.1447781898019826 16.8989224123828663 11.2460787821813550 Cl
2.7957613366371992 2.8208790565117687 14.0451209105575341 Cl
5.6179355884650386 5.5913617257081594 14.1273400807886063 Cl
8.4748645858107619 8.5159925214896788 14.0843832901704005 Cl
11.2514247226453712 11.2319580087176742 14.0781958582435482 Cl
14.0917778303045456 14.0777395837256005 14.1551078015601188 Cl
0.0384649894497308 0.0381100444509753 14.1258470326841614 Cl
5.6465107929438334 2.7695923472800814 16.8881146095756840 Cl
8.4365116122162025 5.6359347653554881 0.0550615065776704 Cl
11.3184315871094476 8.4164867385158733 16.9048471393043052 Cl
14.1100169296532076 11.2351679376758522 16.8814027551749213 Cl
16.9005040406107270 14.1182619110968020 16.8662746784971453 Cl
2.7930853053773741 0.0419315152952008 5.6065732556413428 Cl
2.8497840278175053 14.0552143696823499 8.4334075385867155 Cl
5.5805488252074023 16.9192011679459924 8.4680572751677943 Cl
2.8156731863869657 11.2846912118864928 11.3396596280158839 Cl
5.6145325793974799 14.1483984617409106 11.2553220870216286 Cl
8.4020460467621430 0.0076410039893656 11.2664739376705896 Cl
2.8624277336089645 8.5023966027378890 14.1015541869553616 Cl
5.6032884180044089 11.2883709697659658 14.1467138802986661 Cl
8.5030600643921179 14.0956122602773348 14.1415521190154312 Cl
11.2366676632015903 16.8920033522098301 14.0693651130228474 Cl
2.7627716924370249 5.6264938483507212 0.0119375324545853 Cl
5.6561737132577488 8.4977168386873476 16.8762295638713873 Cl
8.4167265236902900 11.3197547866176151 16.9078771624996023 Cl
11.2656503435716573 14.1079324016351801 16.8622837599571191 Cl
14.1309468389065902 0.0416534274152793 16.8898788256163606 Cl
2.7643862280760487 0.0219764170453123 11.2849138036429419 Cl
2.7916865680131395 14.0518189941281086 14.0781610384336080 Cl
5.6353763875385976 16.9180952403162479 14.0402087456365567 Cl
2.8391491308774786 11.3130598628274246 16.8737360155577889 Cl
5.6758628024511832 14.1217885238749510 0.0428849580587173 Cl
8.4078339950545331 16.9094149459849561 0.0276887081592508 Cl
2.8221698313664509 0.0564470941986759 0.0202241783112892 Cl
