Si
1.0
16.2928500000000014 0.0000000000000000 0.0000000000000000
0.0000000000000000 16.2928500000000014 0.0000000000000000
0.0000000000000000 0.0000000000000000 16.2928500000000014
Si
216
cartesian
10.8129330764689922 0.0321886588106260 16.2799608323047522 Si
13.5883665204950326 2.7106686262974855 0.0587884788801117 Si
13.6234138167104728 16.2544402759873385 2.7132121572822356 Si
5.4782776349245035 16.2603140945581934 16.2754859616007828 Si
8.1801631843257265 2.6788008553342437 16.2594323096035289 Si
10.8510401478495915 5.4515541651638060 0.0552949544639509 Si
13.5194743320054425 8.1309462007217395 16.2900358538251560 Si
8.0951432414290956 16.2821755218418467 2.6862134765618162 Si
10.8325069675401764 2.7519942918341855 2.7529235108749344 Si
13.6052926990502900 5.4332430869265327 2.6624151862792962 Si
10.8442722851360731 0.0423597541790397 5.4696141293004414 Si
13.5515251802849672 2.7316142310022991 5.4826347370444477 Si
13.6329010174292407 16.2701659535283625 8.1479400657127936 Si
0.0107891142630245 0.0567464160352736 0.0162308126897898 Si
2.7702723669174785 2.6981604389943121 16.2756031290926266 Si
5.4178313822591759 5.3738869252822887 0.0131037159744368 Si
8.0975228118131817 8.1340079243524546 16.2603785937646066 Si
10.9147807619438009 10.8874500469305193 0.0122808842556133 Si
13.5799596745605591 13.6251817007593665 16.2566859457483694 Si
2.7354971841632918 16.2826592962528096 2.7711100761523375 Si
5.4767286467786160 2.6981852059743590 2.6807564383699578 Si
8.1942288929110969 5.4207182201366528 2.7502614701195363 Si
10.8887735458401220 8.1139235357507022 2.6727963477763330 Si
13.5461494063939529 10.8185863818468757 2.6881090944525670 Si
5.4097291432326893 0.0461855533532790 5.4628336933166715 Si
8.1800349105486934 2.7139757494336734 5.4806302391363264 Si
10.8913176918905581 5.3798332368805042 5.4199193186054728 Si
13.5934864724208975 8.1640013883539400 5.4860089777316503 Si
8.0932369390559824 0.0194353600322352 8.1662567158469148 Si
10.8899516583622251 2.6831006577684198 8.1044130204203491 Si
13.5559257064946763 5.3972501577761900 8.1911938333801420 Si
10.8770336751136423 16.2754375942446892 10.9172875437564691 Si
13.5211616063804403 2.7126010317244980 10.8826796699716777 Si
13.5577102479388909 16.2475777842455642 13.5432616007694264 Si
16.2807125825785803 5.4588619491731851 0.0517069259547372 Si
2.7003366734884358 8.0884282368227964 16.2901655016493159 Si
5.4145718060469603 10.8441671812618257 16.2379200272853197 Si
8.2042532575088121 13.5720744642467732 16.2777570561445550 Si
0.0040400897683844 2.7018008830581586 2.6571938177838121 Si
2.7466328987478548 5.3868918364792151 2.6892440340856547 Si
5.4636068074436013 8.1063486824768454 2.6850214008470612 Si
8.1614164387088977 10.9125013564136228 2.7440189922671592 Si
10.8684391072137867 13.6092914607557098 2.7658593190851928 Si
0.0419903554870023 16.2804005477260461 5.3899399867817852 Si
2.7564174857787234 2.7414428741670323 5.3956033966339723 Si
5.4750282491219115 5.4465396446944849 5.4685541345151805 Si
8.1120745000214374 8.1936289408067982 5.4448003113152579 Si
10.9100271707865684 10.8845855788967789 5.4586833723553996 Si
13.5938133328749924 13.5479899545430396 5.3812881402302528 Si
2.7311910297981519 16.2353042418485032 8.1528664382054394 Si
5.3893975638921150 2.7517776867134884 8.1699942594472326 Si
8.1037572407720244 5.3922830723080608 8.1295628819440129 Si
10.8333865818352422 8.1018192619226230 8.1181882665640863 Si
13.5955804866263712 10.9116545535120295 8.1745860486580106 Si
5.4398884629316324 16.2335493339399264 10.8600198709485056 Si
8.1644428838735976 2.7208227233341731 10.9188803274461073 Si
10.8482310438659315 5.4855023594164010 10.8828093213735784 Si
13.5382988132056301 8.1793776650915895 10.8304806828690694 Si
8.1391508663255365 0.0221074718551991 13.5220726793663797 Si
10.9197460594036215 2.7211857824044010 13.5625015210589126 Si
13.5993185798645921 5.4798698043052729 13.5504430106665836 Si
0.0009108965225732 10.8099916014742643 16.2627719610012065 Si
2.6739080163631708 13.5546654393833048 0.0368301741501467 Si
0.0269051115793746 8.0929554228107143 2.7113374540969524 Si
2.7374255889262629 10.8704344985801242 2.7706595447547171 Si
5.3797328721178435 13.5934021963532636 2.6886433994410015 Si
16.2651095510692016 5.4401686586851223 5.3785526353222846 Si
2.7133044195482978 8.1955526537434444 5.3965732314175625 Si
5.4390270249814918 10.8171309623188847 5.3918284594813342 Si
8.1188899177830933 13.5779117884309883 5.3776439862164294 Si
16.2666536363210099 2.6846610038413234 8.1907448394709164 Si
2.7288162035433814 5.3945749736344428 8.1922384231958763 Si
5.3982142606793495 8.1123072445673934 8.1094878894555258 Si
8.1631931501694126 10.8233436631007898 8.1892296495699526 Si
10.8981534963681916 13.5872256430209610 8.0996420027343490 Si
16.2818462816326388 16.2551485275134766 10.8165401371867738 Si
2.7655115427662027 2.7471975835083202 10.8713879968156348 Si
5.4796213439154986 5.4481159203765204 10.8312988323903205 Si
8.1370616025244420 8.0975926533052345 10.8283183278559108 Si
10.8992399488019007 10.9071577956503134 10.8744483128888465 Si
13.5941950411713144 13.6255852683463541 10.8303903785970501 Si
2.6912630779844902 16.2449129188266532 13.6041297954746323 Si
5.4562384382356983 2.6775114715128048 13.6163527551481618 Si
8.0927783884336399 5.4469316160744539 13.5989765975125163 Si
10.8233668626429065 8.1234690753726841 13.6172275137214172 Si
13.5260843172086869 10.8892685732024592 13.5625349508197317 Si
16.2618874482881317 13.5899219633914168 2.7653136807725529 Si
16.2340415592556262 10.8621241566982505 5.4428460939383001 Si
2.7145177201349719 13.6154187056190334 5.4773370680041671 Si
16.2837098158769003 8.1894290057913075 8.1055947107517365 Si
2.7241275361862693 10.9072227508275557 8.1847783815324622 Si
5.4251488322170482 13.5179019275316907 8.1518379570052097 Si
16.2339529450453810 5.4375514810730419 10.8525427907305048 Si
2.7683287559035450 8.1515308433993710 10.8339641654845931 Si
5.4181369559890280 10.8854003946391291 10.9155987649298201 Si
8.1205306376399111 13.5295385911439752 10.8872211371334640 Si
16.2333577527468726 2.7195512039686465 13.5707374493990862 Si
2.6763923406708119 5.4755164148118984 13.5866691062271929 Si
5.4372572067537179 8.0877953813918158 13.5662940720232843 Si
8.1791774121580385 10.8914235532865735 13.6180645477876521 Si
10.8089625706286654 13.5704764333370438 13.6047618280299840 Si
16.2740367975358353 13.5581376942922578 8.0927967473513149 Si
0.0154115893592577 10.9088518004157571 10.8278704341617189 Si
2.7643867306337060 13.5596095204025513 10.8917668769893830 Si
0.0011576245043301 8.2050629449426662 13.5647159590249018 Si
2.7210534470961778 10.8140470973008167 13.5416121613087412 Si
5.4123794113192325 13.5205619484609851 13.5721395047145901 Si
16.2409877689196662 13.5480936333246120 13.5846489640495225 Si
12.1844016229099115 1.3135025998697194 1.3777801189945038 Si
14.9223056893219770 4.0146264382549921 1.3596503432935476 Si
14.9124002621261731 1.3048813873510356 4.0561717956012391 Si
6.7338835338821372 1.3745953634324857 1.3400644205219376 Si
9.5072987748118276 4.0151265530352607 1.3724407834942480 Si
12.2421718342780643 6.8439021625600498 1.3643363496747343 Si
14.9828417647393444 9.4881473098932076 1.3250965598588935 Si
9.4472561704401485 1.3575447953477815 4.0541958619966971 Si
12.1994084438440478 4.0281449897034669 4.1072669388106924 Si
14.9123869865288849 6.7887803219367360 4.0176828464664176 Si
12.2262802290330459 1.2996225983331655 6.8020491000260241 Si
14.9803150606654150 4.1117667069694672 6.7803028930176126 Si
14.9324463354976977 1.3591994190302363 9.4442395965356152 Si
1.3142228004122403 1.3883332641507597 1.3299819575656948 Si
4.0610145284796797 4.0585079437177054 1.3008605669309918 Si
6.7483987603929672 6.8276628508471573 1.3791323472117745 Si
9.4532532991552074 9.5183803020708062 1.3293454698924674 Si
12.2687344705684147 12.2505029660339897 1.3731261480077761 Si
14.9263228136560908 14.9328196356116472 1.4170458820961647 Si
4.0686105753316690 1.4165939728098815 4.0839240777418793 Si
6.7463598864252479 4.0310540694765162 4.0676411568173991 Si
9.5010622667074145 6.7628618385586803 4.0191438051327539 Si
12.1895757011764143 9.5371799868432845 4.1132890993322810 Si
14.8956616268730730 12.2218500249927153 4.0280601651470223 Si
6.8124288723257953 1.3872293672578073 6.8352340036897550 Si
9.4993436891633447 4.0185970736129297 6.8130582665591826 Si
12.1832095649744510 6.7844324973873880 6.7412017073611965 Si
14.9208867292907943 9.4463050288684425 6.7816065055787309 Si
9.5133726764624615 1.3956790606887557 9.4586036301497547 Si
12.2102092343049300 4.0635895052564166 9.5626304893458105 Si
14.9445545194993006 6.7341681661428119 9.5273678981550791 Si
12.2469730150898570 1.3480907278752889 12.2721704363575554 Si
14.9743486882422143 4.0591612983390544 12.2628009714093906 Si
14.8875287827187552 1.3495544482330717 14.9707331051812389 Si
1.4025061598261379 6.7487518254715511 1.3567840864904579 Si
4.0919057462070478 9.5312477251915126 1.3075682552122785 Si
6.8427651550547584 12.2448904653706379 1.3515816114553141 Si
9.5027868316830553 14.9876182091529238 1.3287330513233007 Si
1.3945422272853827 4.0967562157506903 4.1143355531222499 Si
4.0169045276552087 6.7917849676191659 4.0937019593576007 Si
6.7559312602983468 9.4551623627091974 4.0844381539271506 Si
9.4656163030799849 12.1764217792925855 4.0575092459822431 Si
12.1860801344245466 14.9457438617170943 4.1218013604895907 Si
1.3674548825484016 1.4089882510024379 6.7590406958200511 Si
4.1110482445276402 4.0845680463619463 6.8338484123342953 Si
6.8243032336939686 6.8252710380550123 6.8202020086718660 Si
9.5247689220320577 9.4483019666943271 6.7961020930331353 Si
12.2795328643526194 12.2162452777285893 6.7876686000400781 Si
14.9129580979880974 14.9366456229200857 6.7329485369167266 Si
4.0834806858109500 1.3408506933193491 9.5608140676771427 Si
6.7750156431843349 4.1170573006752207 9.4655527371806709 Si
9.4504723180954127 6.7869858993300634 9.5308920514780020 Si
12.2475577162212890 9.5545920664764932 9.5208154382134875 Si
14.9467215497891601 12.1897815006424359 9.4534293819668989 Si
6.7380607413108082 1.3857274479015926 12.2037160012927863 Si
9.5507596941496455 4.1110000018390620 12.2187396124023042 Si
12.2713537383607569 6.7625917791532633 12.2040027936292397 Si
14.9868079181489815 9.4737131263360119 12.2202851000939940 Si
9.5183588761626226 1.3854681743018069 14.9863908834243791 Si
12.1940196759959729 4.0620857051686006 14.8820095666528402 Si
14.9030996691160968 6.8113436677249144 14.9805203927370911 Si
1.3533746054410851 12.1873599934727892 1.4081272581205604 Si
4.1190866796299543 14.9678937096286226 1.3782546133097320 Si
1.3177500217425575 9.5188010440284696 4.0309429529082719 Si
4.1085910817219062 12.2542171544776384 4.1071625140140400 Si
6.8294987423508520 14.9209719458979553 4.0315653244958911 Si
1.3082660122966452 6.8202765005154573 6.8011256248933059 Si
4.0781380517281747 9.5636886985293774 6.7943770192071460 Si
6.7669523792808750 12.2065838593845122 6.8430675238507712 Si
9.4900978139062673 14.8920052632360473 6.8279806386333837 Si
1.3247164277901633 4.0486730156891912 9.4604884516431031 Si
4.0192271503031103 6.7892381594596110 9.4779846698327201 Si
6.8095076015158593 9.4639930689421483 9.4647551379800827 Si
9.5237950033004886 12.2608409186858012 9.5431091699828414 Si
12.2396491441292739 14.9916671960110151 9.5031134726641326 Si
1.3867916374338938 1.3292916546003914 12.2637588211211295 Si
4.0473085752946316 4.1024484339541551 12.1740935997422621 Si
6.7624191704661953 6.7744209677519667 12.2716609651009971 Si
9.5403295828764314 9.4879620802483746 12.2646873447952736 Si
12.1678746646837901 12.1894203939839443 12.2223825653983464 Si
14.9795163072478843 14.9699797104455818 12.1993254460013265 Si
4.0339344186527573 1.3660665430430705 14.9796979165357911 Si
6.7841171504763551 4.0136669155766240 14.9408948248707141 Si
9.4483271711553325 6.7692509777185554 14.9248832451682194 Si
12.2002935207773113 9.5604030408208462 14.9271870955305754 Si
14.9240047156460456 12.2732017310452601 14.9104651821079379 Si
1.3596986605516839 14.9919864749792833 4.0541992199212640 Si
1.3236199091588312 12.2496101311157037 6.8279001431040358 Si
4.1087682379036261 14.9390328029001669 6.8368582455547999 Si
1.3746922525367289 9.4692721864431224 9.5499358807612911 Si
4.1202209620619561 12.1934912418787480 9.4775809710592238 Si
6.7307943665152772 14.9274933366837814 9.5179586387957684 Si
1.4167612427058418 6.7994218330273952 12.2186516544510955 Si
4.0856984551741755 9.5558227367301019 12.1917929158879570 Si
6.8371732351492831 12.2128017047164192 12.1849617824172309 Si
9.4710486125820168 14.9594216642491329 12.2633700392995166 Si
1.3713164839663623 4.0802458166955660 14.8770940231956796 Si
4.0269801248768076 6.8264084028350602 14.9414133713509383 Si
6.7581828022188439 9.5440711809051155 14.9679265305614848 Si
9.5351402736819768 12.1739469526304163 14.9586231660640490 Si
12.1977515661360130 14.9233034108474563 14.9897160833283252 Si
1.3814624724911755 14.9296106003733211 9.4493277046525783 Si
1.3999261854462730 12.2506910553469091 12.2488914146205659 Si
4.0996258793344458 14.9107236973740456 12.1716008504644204 Si
1.3428419442713417 9.4718559188744607 14.8867967961811249 Si
4.0232831305836605 12.2260628513165468 14.9024663221204694 Si
6.7976264718471056 14.9147657642417499 14.9908449423141974 Si
1.3356589154351539 14.8832693563489080 14.9145012273566220 Si
