Si
5.430950
   3.00000000000000   0.00000000000000   0.00000000000000
   0.00000000000000   3.00000000000000   0.00000000000000
   0.00000000000000   0.00000000000000   3.00000000000000
Si 
216 
Direct(216) 
   0.66666666666667   0.00000000000000   0.00000000000000  Si    
   0.83333333333333   0.16666666666667   0.00000000000000  Si    
   0.83333333333333   0.00000000000000   0.16666666666667  Si    
   0.33333333333333   0.00000000000000   0.00000000000000  Si    
   0.50000000000000   0.16666666666667   0.00000000000000  Si    
   0.66666666666667   0.33333333333333   0.00000000000000  Si    
   0.83333333333333   0.50000000000000   0.00000000000000  Si    
   0.50000000000000   0.00000000000000   0.16666666666667  Si    
   0.66666666666667   0.16666666666667   0.16666666666667  Si    
   0.83333333333333   0.33333333333333   0.16666666666667  Si    
   0.66666666666667   0.00000000000000   0.33333333333333  Si    
   0.83333333333333   0.16666666666667   0.33333333333333  Si    
   0.83333333333333   0.00000000000000   0.50000000000000  Si    
   0.00000000000000   0.00000000000000   0.00000000000000  Si    
   0.16666666666667   0.16666666666667   0.00000000000000  Si    
   0.33333333333333   0.33333333333333   0.00000000000000  Si    
   0.50000000000000   0.50000000000000   0.00000000000000  Si    
   0.66666666666667   0.66666666666667   0.00000000000000  Si    
   0.83333333333333   0.83333333333333   0.00000000000000  Si    
   0.16666666666667   0.00000000000000   0.16666666666667  Si    
   0.33333333333333   0.16666666666667   0.16666666666667  Si    
   0.50000000000000   0.33333333333333   0.16666666666667  Si    
   0.66666666666667   0.50000000000000   0.16666666666667  Si    
   0.83333333333333   0.66666666666667   0.16666666666667  Si    
   0.33333333333333   0.00000000000000   0.33333333333333  Si    
   0.50000000000000   0.16666666666667   0.33333333333333  Si    
   0.66666666666667   0.33333333333333   0.33333333333333  Si    
   0.83333333333333   0.50000000000000   0.33333333333333  Si    
   0.50000000000000   0.00000000000000   0.50000000000000  Si    
   0.66666666666667   0.16666666666667   0.50000000000000  Si    
   0.83333333333333   0.33333333333333   0.50000000000000  Si    
   0.66666666666667   0.00000000000000   0.66666666666667  Si    
   0.83333333333333   0.16666666666667   0.66666666666667  Si    
   0.83333333333333   0.00000000000000   0.83333333333333  Si    
   0.00000000000000   0.33333333333333   0.00000000000000  Si    
   0.16666666666667   0.50000000000000   0.00000000000000  Si    
   0.33333333333333   0.66666666666667   0.00000000000000  Si    
   0.50000000000000   0.83333333333333   0.00000000000000  Si    
   0.00000000000000   0.16666666666667   0.16666666666667  Si    
   0.16666666666667   0.33333333333333   0.16666666666667  Si    
   0.33333333333333   0.50000000000000   0.16666666666667  Si    
   0.50000000000000   0.66666666666667   0.16666666666667  Si    
   0.66666666666667   0.83333333333333   0.16666666666667  Si    
   0.00000000000000   0.00000000000000   0.33333333333333  Si    
   0.16666666666667   0.16666666666667   0.33333333333333  Si    
   0.33333333333333   0.33333333333333   0.33333333333333  Si    
   0.50000000000000   0.50000000000000   0.33333333333333  Si    
   0.66666666666667   0.66666666666667   0.33333333333333  Si    
   0.83333333333333   0.83333333333333   0.33333333333333  Si    
   0.16666666666667   0.00000000000000   0.50000000000000  Si    
   0.33333333333333   0.16666666666667   0.50000000000000  Si    
   0.50000000000000   0.33333333333333   0.50000000000000  Si    
   0.66666666666667   0.50000000000000   0.50000000000000  Si    
   0.83333333333333   0.66666666666667   0.50000000000000  Si    
   0.33333333333333   0.00000000000000   0.66666666666667  Si    
   0.50000000000000   0.16666666666667   0.66666666666667  Si    
   0.66666666666667   0.33333333333333   0.66666666666667  Si    
   0.83333333333333   0.50000000000000   0.66666666666667  Si    
   0.50000000000000   0.00000000000000   0.83333333333333  Si    
   0.66666666666667   0.16666666666667   0.83333333333333  Si    
   0.83333333333333   0.33333333333333   0.83333333333333  Si    
   0.00000000000000   0.66666666666667   0.00000000000000  Si    
   0.16666666666667   0.83333333333333   0.00000000000000  Si    
   0.00000000000000   0.50000000000000   0.16666666666667  Si    
   0.16666666666667   0.66666666666667   0.16666666666667  Si    
   0.33333333333333   0.83333333333333   0.16666666666667  Si    
   0.00000000000000   0.33333333333333   0.33333333333333  Si    
   0.16666666666667   0.50000000000000   0.33333333333333  Si    
   0.33333333333333   0.66666666666667   0.33333333333333  Si    
   0.50000000000000   0.83333333333333   0.33333333333333  Si    
   0.00000000000000   0.16666666666667   0.50000000000000  Si    
   0.16666666666667   0.33333333333333   0.50000000000000  Si    
   0.33333333333333   0.50000000000000   0.50000000000000  Si    
   0.50000000000000   0.66666666666667   0.50000000000000  Si    
   0.66666666666667   0.83333333333333   0.50000000000000  Si    
   0.00000000000000   0.00000000000000   0.66666666666667  Si    
   0.16666666666667   0.16666666666667   0.66666666666667  Si    
   0.33333333333333   0.33333333333333   0.66666666666667  Si    
   0.50000000000000   0.50000000000000   0.66666666666667  Si    
   0.66666666666667   0.66666666666667   0.66666666666667  Si    
   0.83333333333333   0.83333333333333   0.66666666666667  Si    
   0.16666666666667   0.00000000000000   0.83333333333333  Si    
   0.33333333333333   0.16666666666667   0.83333333333333  Si    
   0.50000000000000   0.33333333333333   0.83333333333333  Si    
   0.66666666666667   0.50000000000000   0.83333333333333  Si    
   0.83333333333333   0.66666666666667   0.83333333333333  Si    
   0.00000000000000   0.83333333333333   0.16666666666667  Si    
   0.00000000000000   0.66666666666667   0.33333333333333  Si    
   0.16666666666667   0.83333333333333   0.33333333333333  Si    
   0.00000000000000   0.50000000000000   0.50000000000000  Si    
   0.16666666666667   0.66666666666667   0.50000000000000  Si    
   0.33333333333333   0.83333333333333   0.50000000000000  Si    
   0.00000000000000   0.33333333333333   0.66666666666667  Si    
   0.16666666666667   0.50000000000000   0.66666666666667  Si    
   0.33333333333333   0.66666666666667   0.66666666666667  Si    
   0.50000000000000   0.83333333333333   0.66666666666667  Si    
   0.00000000000000   0.16666666666667   0.83333333333333  Si    
   0.16666666666667   0.33333333333333   0.83333333333333  Si    
   0.33333333333333   0.50000000000000   0.83333333333333  Si    
   0.50000000000000   0.66666666666667   0.83333333333333  Si    
   0.66666666666667   0.83333333333333   0.83333333333333  Si    
   0.00000000000000   0.83333333333333   0.50000000000000  Si    
   0.00000000000000   0.66666666666667   0.66666666666667  Si    
   0.16666666666667   0.83333333333333   0.66666666666667  Si    
   0.00000000000000   0.50000000000000   0.83333333333333  Si    
   0.16666666666667   0.66666666666667   0.83333333333333  Si    
   0.33333333333333   0.83333333333333   0.83333333333333  Si    
   0.00000000000000   0.83333333333333   0.83333333333333  Si    
   0.75000000000000   0.08333333333333   0.08333333333333  Si    
   0.91666666666667   0.25000000000000   0.08333333333333  Si    
   0.91666666666667   0.08333333333333   0.25000000000000  Si    
   0.41666666666667   0.08333333333333   0.08333333333333  Si    
   0.58333333333333   0.25000000000000   0.08333333333333  Si    
   0.75000000000000   0.41666666666667   0.08333333333333  Si    
   0.91666666666667   0.58333333333333   0.08333333333333  Si    
   0.58333333333333   0.08333333333333   0.25000000000000  Si    
   0.75000000000000   0.25000000000000   0.25000000000000  Si    
   0.91666666666667   0.41666666666667   0.25000000000000  Si    
   0.75000000000000   0.08333333333333   0.41666666666667  Si    
   0.91666666666667   0.25000000000000   0.41666666666667  Si    
   0.91666666666667   0.08333333333333   0.58333333333333  Si    
   0.08333333333333   0.08333333333333   0.08333333333333  Si    
   0.25000000000000   0.25000000000000   0.08333333333333  Si    
   0.41666666666667   0.41666666666667   0.08333333333333  Si    
   0.58333333333333   0.58333333333333   0.08333333333333  Si    
   0.75000000000000   0.75000000000000   0.08333333333333  Si    
   0.91666666666667   0.91666666666667   0.08333333333333  Si    
   0.25000000000000   0.08333333333333   0.25000000000000  Si    
   0.41666666666667   0.25000000000000   0.25000000000000  Si    
   0.58333333333333   0.41666666666667   0.25000000000000  Si    
   0.75000000000000   0.58333333333333   0.25000000000000  Si    
   0.91666666666667   0.75000000000000   0.25000000000000  Si    
   0.41666666666667   0.08333333333333   0.41666666666667  Si    
   0.58333333333333   0.25000000000000   0.41666666666667  Si    
   0.75000000000000   0.41666666666667   0.41666666666667  Si    
   0.91666666666667   0.58333333333333   0.41666666666667  Si    
   0.58333333333333   0.08333333333333   0.58333333333333  Si    
   0.75000000000000   0.25000000000000   0.58333333333333  Si    
   0.91666666666667   0.41666666666667   0.58333333333333  Si    
   0.75000000000000   0.08333333333333   0.75000000000000  Si    
   0.91666666666667   0.25000000000000   0.75000000000000  Si    
   0.91666666666667   0.08333333333333   0.91666666666667  Si    
   0.08333333333333   0.41666666666667   0.08333333333333  Si    
   0.25000000000000   0.58333333333333   0.08333333333333  Si    
   0.41666666666667   0.75000000000000   0.08333333333333  Si    
   0.58333333333333   0.91666666666667   0.08333333333333  Si    
   0.08333333333333   0.25000000000000   0.25000000000000  Si    
   0.25000000000000   0.41666666666667   0.25000000000000  Si    
   0.41666666666667   0.58333333333333   0.25000000000000  Si    
   0.58333333333333   0.75000000000000   0.25000000000000  Si    
   0.75000000000000   0.91666666666667   0.25000000000000  Si    
   0.08333333333333   0.08333333333333   0.41666666666667  Si    
   0.25000000000000   0.25000000000000   0.41666666666667  Si    
   0.41666666666667   0.41666666666667   0.41666666666667  Si    
   0.58333333333333   0.58333333333333   0.41666666666667  Si    
   0.75000000000000   0.75000000000000   0.41666666666667  Si    
   0.91666666666667   0.91666666666667   0.41666666666667  Si    
   0.25000000000000   0.08333333333333   0.58333333333333  Si    
   0.41666666666667   0.25000000000000   0.58333333333333  Si    
   0.58333333333333   0.41666666666667   0.58333333333333  Si    
   0.75000000000000   0.58333333333333   0.58333333333333  Si    
   0.91666666666667   0.75000000000000   0.58333333333333  Si    
   0.41666666666667   0.08333333333333   0.75000000000000  Si    
   0.58333333333333   0.25000000000000   0.75000000000000  Si    
   0.75000000000000   0.41666666666667   0.75000000000000  Si    
   0.91666666666667   0.58333333333333   0.75000000000000  Si    
   0.58333333333333   0.08333333333333   0.91666666666667  Si    
   0.75000000000000   0.25000000000000   0.91666666666667  Si    
   0.91666666666667   0.41666666666667   0.91666666666667  Si    
   0.08333333333333   0.75000000000000   0.08333333333333  Si    
   0.25000000000000   0.91666666666667   0.08333333333333  Si    
   0.08333333333333   0.58333333333333   0.25000000000000  Si    
   0.25000000000000   0.75000000000000   0.25000000000000  Si    
   0.41666666666667   0.91666666666667   0.25000000000000  Si    
   0.08333333333333   0.41666666666667   0.41666666666667  Si    
   0.25000000000000   0.58333333333333   0.41666666666667  Si    
   0.41666666666667   0.75000000000000   0.41666666666667  Si    
   0.58333333333333   0.91666666666667   0.41666666666667  Si    
   0.08333333333333   0.25000000000000   0.58333333333333  Si    
   0.25000000000000   0.41666666666667   0.58333333333333  Si    
   0.41666666666667   0.58333333333333   0.58333333333333  Si    
   0.58333333333333   0.75000000000000   0.58333333333333  Si    
   0.75000000000000   0.91666666666667   0.58333333333333  Si    
   0.08333333333333   0.08333333333333   0.75000000000000  Si    
   0.25000000000000   0.25000000000000   0.75000000000000  Si    
   0.41666666666667   0.41666666666667   0.75000000000000  Si    
   0.58333333333333   0.58333333333333   0.75000000000000  Si    
   0.75000000000000   0.75000000000000   0.75000000000000  Si    
   0.91666666666667   0.91666666666667   0.75000000000000  Si    
   0.25000000000000   0.08333333333333   0.91666666666667  Si    
   0.41666666666667   0.25000000000000   0.91666666666667  Si    
   0.58333333333333   0.41666666666667   0.91666666666667  Si    
   0.75000000000000   0.58333333333333   0.91666666666667  Si    
   0.91666666666667   0.75000000000000   0.91666666666667  Si    
   0.08333333333333   0.91666666666667   0.25000000000000  Si    
   0.08333333333333   0.75000000000000   0.41666666666667  Si    
   0.25000000000000   0.91666666666667   0.41666666666667  Si    
   0.08333333333333   0.58333333333333   0.58333333333333  Si    
   0.25000000000000   0.75000000000000   0.58333333333333  Si    
   0.41666666666667   0.91666666666667   0.58333333333333  Si    
   0.08333333333333   0.41666666666667   0.75000000000000  Si    
   0.25000000000000   0.58333333333333   0.75000000000000  Si    
   0.41666666666667   0.75000000000000   0.75000000000000  Si    
   0.58333333333333   0.91666666666667   0.75000000000000  Si    
   0.08333333333333   0.25000000000000   0.91666666666667  Si    
   0.25000000000000   0.41666666666667   0.91666666666667  Si    
   0.41666666666667   0.58333333333333   0.91666666666667  Si    
   0.58333333333333   0.75000000000000   0.91666666666667  Si    
   0.75000000000000   0.91666666666667   0.91666666666667  Si    
   0.08333333333333   0.91666666666667   0.58333333333333  Si    
   0.08333333333333   0.75000000000000   0.75000000000000  Si    
   0.25000000000000   0.91666666666667   0.75000000000000  Si    
   0.08333333333333   0.58333333333333   0.91666666666667  Si    
   0.25000000000000   0.75000000000000   0.91666666666667  Si    
   0.41666666666667   0.91666666666667   0.91666666666667  Si    
   0.08333333333333   0.91666666666667   0.91666666666667  Si    
