Na108 Cl108
1.0
16.9199999999999982 0.0000000000000004 0.0000000000000004
0.0000000000000004 16.9199999999999982 -0.0000000000000004
-0.0000000000000004 -0.0000000000000004 16.9199999999999982
Na Cl
108 108
cartesian
16.9136523094558413 5.6437823310357471 5.6467380113306236 Na
2.8113958949299231 8.4644324514058606 5.6425145079991541 Na
2.8179003929549267 5.6478322171372115 8.4541478187851151 Na
11.2858039110327582 5.6354518847110153 5.6467549436742202 Na
14.1068881332245262 8.4603577165280299 5.6472405565785175 Na
16.9141327791581730 11.2770042837909639 5.6324766095416914 Na
2.8114147708829327 14.0962570305549999 5.6435048567362029 Na
14.1062674545718991 5.6385201671588243 8.4676504318800543 Na
16.9184064725496803 8.4525554358058379 8.4664837592663602 Na
2.8187436212520844 11.2857183130822367 8.4681069357919814 Na
0.0099259327888277 5.6395851138486437 11.2811418089827455 Na
2.8151124756871280 8.4575690273579536 11.2716213080910688 Na
2.8160129519204733 5.6466770809833537 14.1062864964132082 Na
5.6341157706344944 5.6331852301866441 5.6443514086414748 Na
8.4623995149449698 8.4696847548834651 5.6393307833862725 Na
11.2780546490357985 11.2778865737878036 5.6304214281194058 Na
14.1027541586249789 14.1083143479282249 5.6448255806693926 Na
16.9151759039643039 16.9122997163485635 5.6441753717350496 Na
2.8133109305233548 2.8129262356805693 5.6422843397054399 Na
8.4672268151171917 5.6453282385861776 8.4644026147720037 Na
11.2714698421589024 8.4562295578759858 8.4563916522624005 Na
14.0921211566423068 11.2794916933095042 8.4538627814399856 Na
16.9173550201354992 14.0905837888115553 8.4579169617451893 Na
2.8151734983880168 16.9159435310818083 8.4677620836188048 Na
11.2837685955624689 5.6434051006243724 11.2713858850005089 Na
14.1027411901387936 8.4551926932696855 11.2883292063621692 Na
16.9177485054256671 11.2862957586984809 11.2874360066293811 Na
2.8173986654833598 14.0912233926550243 11.2840254468378873 Na
14.1041727420454581 5.6368145974611199 14.0914887465971592 Na
16.9165377012286804 8.4620393644096232 14.1091571545811370 Na
2.8141853262877183 11.2729769379742759 14.0958931557854470 Na
0.0067593373741296 5.6380833829986896 16.9128839661655554 Na
2.8205789010430342 8.4590505898863473 16.9100620176082614 Na
2.8174759966403076 5.6325489745803798 2.8261734615278971 Na
5.6456946735117377 11.2882101274347271 5.6395944126478650 Na
8.4552649233338322 14.1079189921284556 5.6361440159965364 Na
11.2759713506159258 16.9110677599956354 5.6419962646730033 Na
14.0996633200639838 2.8283842658212497 5.6345602634935803 Na
5.6427030618207867 8.4582305956698871 8.4505362446613628 Na
8.4579835784385420 11.2895347651144480 8.4622410484820261 Na
11.2727040387704740 14.1017516947600186 8.4666106365204126 Na
14.1010172548796273 0.0014807389410302 8.4698373067807395 Na
16.9110633316914907 2.8244521479520608 8.4605606586810911 Na
5.6469781973450113 5.6455061637854644 11.2845811485657723 Na
8.4674491066436843 8.4545605077414674 11.2838629954931893 Na
11.2737115193442463 11.2861425243619848 11.2752329877800985 Na
14.0909372061761555 14.1006440749633839 11.2758225683071931 Na
0.0004187839718909 0.0086559762147168 11.2849898592921161 Na
2.8167768891323095 2.8141066485642448 11.2725918986785167 Na
8.4657515994689021 5.6420306946749657 14.0920756462290981 Na
11.2725780579429689 8.4585869612258406 14.1065511905425538 Na
14.1062107423691199 11.2799901833634664 14.1078375112668528 Na
16.9134515330719388 14.1064660800686301 14.0960875340975047 Na
2.8134126587306283 0.0015555135270951 14.0926387967921034 Na
11.2843692308012979 5.6408963591832073 16.9110497842249643 Na
14.1074655676979965 8.4629524093452364 0.0059622628258699 Na
0.0037237573922871 11.2725327425585498 16.9144887662736423 Na
2.8208728451249412 14.0958678842476264 16.9109355771944969 Na
14.0969575107242182 5.6375898419007386 2.8107840140547320 Na
0.0036517945128603 8.4684631123205865 2.8238781602190941 Na
2.8277630892098293 11.2801557960322043 2.8136983991306512 Na
5.6497147922994921 0.0019173082785101 5.6386047439149465 Na
8.4505993030403399 2.8186543163087783 5.6431330547514928 Na
5.6378954514945008 14.1084778267450783 8.4648679902699566 Na
8.4683605863899096 16.9196691406312496 8.4654764155517039 Na
11.2770559938498742 2.8283086149691945 8.4552777394098086 Na
5.6319093736000507 11.2783883933554510 11.2743480544518064 Na
8.4609785204452947 14.0937510724827266 11.2722544591782068 Na
11.2867849741033055 0.0059188273428099 11.2843510469203938 Na
14.0975045410171038 2.8116647684646803 11.2849291581144566 Na
5.6451250985985100 8.4662631406283406 14.0941257822797272 Na
8.4542775009370299 11.2741073912159848 14.1057035222619742 Na
11.2704634030853938 14.1007971585907121 14.0970986455801413 Na
14.0960153573833029 16.9110323499371376 14.0980754544517470 Na
16.9189958378530179 2.8258836478336296 14.0919766374535111 Na
5.6479627359958720 5.6439136761699391 16.9153871945307728 Na
8.4557407580301351 8.4569162364392554 16.9114941631720583 Na
11.2738734122809863 11.2752387699757151 16.9136916236972468 Na
14.0931922168592045 14.1052879992398328 0.0050686440738539 Na
0.0032169991934825 16.9121245812610823 16.9147436994115772 Na
2.8284237382933846 2.8253844947539473 16.9197812549219293 Na
8.4621339567604661 5.6364078452987920 2.8290852987373549 Na
11.2782688412136700 8.4697923202728678 2.8189447498258278 Na
14.0985556741538645 11.2701547055420175 2.8209920180874639 Na
0.0080092790034277 14.1025756896238672 2.8145946995636884 Na
2.8234139144928929 0.0045864538037376 2.8282042445929725 Na
5.6384927585208411 2.8178655546346922 8.4503474166097341 Na
5.6325396587787191 0.0032768222172272 11.2742029537677553 Na
8.4694004228147808 2.8187680353165527 11.2831803009169072 Na
5.6413537653110151 14.0998963281360226 14.0900926001580977 Na
8.4579990607638251 16.9196448107927111 14.0902086730827634 Na
11.2788697725705394 2.8297307866928429 14.1020085756883997 Na
5.6481596788406883 11.2750461985463630 16.9170201522900001 Na
8.4526640149245225 14.0973520388809259 16.9137412760977739 Na
11.2760777402837977 0.0049530591812011 16.9122486721481948 Na
14.1052001993384355 2.8137393282079333 0.0058105004562910 Na
5.6389817522320014 8.4690322273752852 2.8241691773917719 Na
8.4689976323030738 11.2783629741195188 2.8159549092463392 Na
11.2887218116495518 14.0951509636691181 2.8193543621668944 Na
14.0955100868165140 0.0010767737061241 2.8111297554717680 Na
16.9177400430359484 2.8256302243403524 2.8279494130851202 Na
5.6365421052014009 2.8210437679659464 14.0906751132985395 Na
5.6466807924004199 0.0053500638115078 16.9148285562832719 Na
8.4612648835333388 2.8264414939382263 16.9124563122088105 Na
5.6329107767772753 14.1035819195558680 2.8260755877405908 Na
8.4623869925685931 0.0039458119853900 2.8111268475583100 Na
11.2899892650915259 2.8200327671374259 2.8204620706070465 Na
5.6318705068737671 2.8246668395379975 2.8234830949222114 Na
14.0964624087418304 2.8216065036496394 2.8107856311060480 Cl
16.9151606091234079 5.6406830016757841 2.8287243225900052 Cl
16.9126912555130602 2.8179087302136021 5.6464968334367756 Cl
8.4568213255208882 2.8182026238038156 2.8293094289494705 Cl
11.2711020453785782 5.6392510381645033 2.8245017174193987 Cl
14.0971651020612772 8.4682189841588205 2.8150591849787605 Cl
16.9172339154998674 11.2795983655668763 2.8296014304309454 Cl
11.2816868076180441 2.8102271312750937 5.6412828549978196 Cl
14.0947635071307147 5.6323590297662731 5.6362324124008483 Cl
16.9175624315792597 8.4693979429084507 5.6376048112216974 Cl
14.0960697617550892 2.8186095065834360 8.4509104590106681 Cl
16.9168489931662336 5.6316685158415325 8.4645450552967816 Cl
16.9192320951160369 2.8195261858040550 11.2700407920898833 Cl
2.8276610446124555 2.8170989265669863 2.8142648305707483 Cl
5.6323186764672588 5.6438970447392807 2.8250803849347648 Cl
8.4576821458847871 8.4654085342605150 2.8280854999507401 Cl
11.2701053059270375 11.2793916174285016 2.8213133544263540 Cl
14.0922311455880891 14.1010944166661236 2.8137994231488124 Cl
0.0085119898632158 16.9155712772296063 2.8171835406639736 Cl
5.6469946183997584 2.8243739770562488 5.6456518703234559 Cl
8.4581955976503593 5.6497697954945245 5.6411380809091538 Cl
11.2701014002590068 8.4599626913112242 5.6385800242152015 Cl
14.0994620025707462 11.2856827133204405 5.6317891944314953 Cl
16.9170427940798938 14.1048479212870408 5.6317688037114415 Cl
8.4562337483367411 2.8108867577174284 8.4583374226309278 Cl
11.2859337492879135 5.6479544581302328 8.4612317529145589 Cl
14.0940885697370835 8.4611673998312433 8.4520192625728754 Cl
0.0085344766695866 11.2811806830100405 8.4549237124188963 Cl
11.2726173770171556 2.8183121493385013 11.2734694534656210 Cl
14.0940482123050064 5.6480359299942569 11.2800072360994381 Cl
16.9157665885488555 8.4605040989850995 11.2709543318821321 Cl
14.1034258683501363 2.8293846355957575 14.0995617754201472 Cl
16.9199159308615243 5.6484808922285250 14.1052978674377574 Cl
0.0087485261229770 2.8199386394642696 16.9151564965613481 Cl
2.8183668743819394 8.4698610421159568 2.8203045473738824 Cl
5.6492446148079773 11.2773649808010425 2.8172443202520538 Cl
8.4532819801243004 14.1073793933204925 2.8193575335252512 Cl
11.2741349576927181 16.9165973395926734 2.8126499536813547 Cl
2.8235349020032414 5.6414600720044277 5.6492397325485824 Cl
5.6425658582478482 8.4601481891158166 5.6496640784060288 Cl
8.4558173967493513 11.2879048649097804 5.6355257468996731 Cl
11.2725288019767191 14.0990120079211270 5.6334269435002389 Cl
14.0990892320412833 16.9100798676982045 5.6391273735963772 Cl
2.8292890655950056 2.8185107209904672 8.4566095268171733 Cl
5.6446724830774784 5.6473393238002050 8.4649297290033410 Cl
8.4557232408282754 8.4510971101777823 8.4584354285568999 Cl
11.2897553729676545 11.2790940551457393 8.4620029883132304 Cl
14.1084303475323853 14.0952929777688656 8.4573974661964169 Cl
0.0062490314896794 16.9189459997262226 8.4522644529046804 Cl
5.6384044326931448 2.8250312001917739 11.2884935969765205 Cl
8.4666137665169963 5.6471923839345219 11.2778721593581679 Cl
11.2869478346122900 8.4604311468822502 11.2871792552932835 Cl
14.0906092109564955 11.2794512120608132 11.2833929210038271 Cl
16.9149549991433084 14.0916062418528139 11.2779769353637178 Cl
8.4598887070376172 2.8218735891261004 14.0901777152523895 Cl
11.2747919916524424 5.6323301939314012 14.0962515704725959 Cl
14.1051749381114178 8.4647242327849526 14.0928654614629547 Cl
0.0063747758512173 11.2877043475733174 14.0999274650693298 Cl
11.2882541013891622 2.8245361757025060 16.9166395059509966 Cl
14.1003552104156196 5.6402388982552507 16.9100091665420607 Cl
0.0044428959151889 8.4556059967062467 0.0078072665473449 Cl
2.8207215470592644 14.0901956448303931 2.8218313900593524 Cl
5.6364024436964435 16.9109828110650682 2.8223974762469304 Cl
2.8106154786700084 11.2792778582924971 5.6433777612054783 Cl
5.6312172300906198 14.0961960068393175 5.6428969965054172 Cl
8.4654580642825632 16.9177733623022775 5.6319221525855898 Cl
2.8131129033887325 8.4528021663971540 8.4608712586830883 Cl
5.6311327701598373 11.2819703661649609 8.4558179081624445 Cl
8.4519030504253134 14.0958290247716516 8.4558717590635286 Cl
11.2859091753043490 0.0041265299747814 8.4530679442017753 Cl
2.8278457589294974 5.6402878571854549 11.2738063576902583 Cl
5.6447776445398281 8.4534968690267185 11.2740937829200565 Cl
8.4698819704131090 11.2814089846141012 11.2793988152433347 Cl
11.2840138562255934 14.0909715937243689 11.2815416998159233 Cl
14.1099645588065172 0.0007908712635793 11.2802865142856916 Cl
2.8131467835246728 2.8167637746619607 14.0934761767724908 Cl
5.6496687207144740 5.6420616081926092 14.1015051948065420 Cl
8.4551124844321652 8.4526663808238105 14.1047254863615130 Cl
11.2707172572892542 11.2837148081422676 14.0998242495171375 Cl
14.0929399392116785 14.0964633581854510 14.1061357726767547 Cl
16.9120064174072304 0.0040989952859850 14.0956067238900715 Cl
5.6432293026959215 2.8248739442384898 0.0081127228264133 Cl
8.4642235250677142 5.6450098462954461 16.9124459761650883 Cl
11.2793309575397736 8.4500233450228084 16.9198631144545395 Cl
14.1077552220703399 11.2737012640501728 16.9195728512272474 Cl
0.0050544523491862 14.0917989417834875 16.9173176212834200 Cl
2.8282333904176693 0.0038818261097234 5.6441403753796067 Cl
2.8145949136152151 14.0919281616919392 8.4576271393842859 Cl
5.6458865409970276 0.0057641400182364 8.4543322557449656 Cl
2.8274838124241506 11.2795326813014771 11.2733837952847438 Cl
5.6382097875019204 14.0995507614941253 11.2898281902696525 Cl
8.4684604250966569 16.9154159072782768 11.2827216357402360 Cl
2.8104284842514748 8.4628955503622958 14.1000432940542026 Cl
5.6322804675308369 11.2779826041167119 14.0939718218085659 Cl
8.4613263921444748 14.0916937060992264 14.1054079724031336 Cl
11.2829945257230726 0.0021430851291041 14.1092973115373876 Cl
2.8256900472613173 5.6322195529952692 0.0026623310407489 Cl
5.6311259000438847 8.4553998684097156 0.0002985620889821 Cl
8.4582564026332498 11.2869765482807409 16.9130510689808276 Cl
11.2760916180189223 14.1057898866455744 0.0071555407148143 Cl
14.0945974193531889 16.9138623388417670 0.0057568426990416 Cl
2.8278644254374559 0.0022640393656747 11.2742532671639122 Cl
2.8262099362076971 14.0952238801095380 14.0937850686980255 Cl
5.6493885444179961 16.9196174905959147 14.1034218299588190 Cl
2.8282453622805046 11.2840515584517114 0.0039495411094973 Cl
5.6306117987969637 14.0974266765506737 0.0022890357350832 Cl
8.4637129134215403 16.9152730216491776 0.0079918677163102 Cl
2.8119966033107695 16.9140246172815338 0.0004903496738970 Cl
