Si
1.0
16.2928500000000014 0.0000000000000000 0.0000000000000000
0.0000000000000000 16.2928500000000014 0.0000000000000000
0.0000000000000000 0.0000000000000000 16.2928500000000014
Si
216
cartesian
10.8629896474034133 -0.0080707132361899 0.0058031247096321 Si
13.5743749557202271 2.7060649819296598 0.0015656609577358 Si
13.5859387817400314 -0.0028398454189550 2.7111625853278984 Si
5.4313801741354144 0.0049151891024260 -0.0086980380719198 Si
8.1426309314270426 2.7188309226848286 -0.0086222286328719 Si
10.8668366165856245 5.4383849508941298 0.0045112439402142 Si
13.5683913012387638 8.1463313327758318 0.0043913987543241 Si
8.1532816910318235 -0.0065996812830521 2.7124041702984489 Si
10.8685319775415206 2.7122429705481692 2.7087243808053691 Si
13.5849618936083658 5.4333614630440836 2.7094232323771799 Si
10.8534384790266056 -0.0019073952558907 5.4359263948952208 Si
13.5756245119365566 2.7062833792146095 5.4344784414230833 Si
13.5696067120967339 0.0040209896620033 8.1415788319064575 Si
0.0068626786052611 -0.0071559429644037 0.0013023527368164 Si
2.7214039956940361 2.7138593531568662 0.0078890237253312 Si
5.4385703256452338 5.4342539033478978 -0.0055690986458444 Si
8.1380298994663871 8.1437248451845559 0.0047150239663388 Si
10.8635259955626786 10.8690599520363111 -0.0067890518681811 Si
13.5729981979412919 13.5808719275710157 -0.0082834232840090 Si
2.7063341592973056 0.0038194367386805 2.7168376937463492 Si
5.4215648779150660 2.7146916725610168 2.7188374219805835 Si
8.1491885938260360 5.4381766127961972 2.7091394955483352 Si
10.8642392750150645 8.1464175737096163 2.7251975375934170 Si
13.5854665625480653 10.8584190929126017 2.7107410902651297 Si
5.4261635236412653 0.0074085463359344 5.4356620149888988 Si
8.1390873602603531 2.7179309830777774 5.4246153973941711 Si
10.8619055565626450 5.4279529357825167 5.4214096868394037 Si
13.5865489324365374 8.1481866173904400 5.4345187067430878 Si
8.1414364732325009 0.0083235328141212 8.1488402437107208 Si
10.8718757723957857 2.7149331954512372 8.1459886366886973 Si
13.5729033424138983 5.4220366150213462 8.1471705512433203 Si
10.8641075132530958 0.0028172525332179 10.8712375571432123 Si
13.5687304211085777 2.7200271733509847 10.8597671677108192 Si
13.5774554530630915 -0.0094090474362185 13.5807607574702356 Si
0.0087488236042723 5.4292326094793824 0.0045286482907383 Si
2.7157884872322371 8.1525436772743163 -0.0079033862469205 Si
5.4309864940780779 10.8531083221129663 -0.0047649835374256 Si
8.1464726921996338 13.5705135354726885 0.0072744779878189 Si
0.0027327126692831 2.7210835302360143 2.7076598435678729 Si
2.7133893917404079 5.4262242420797175 2.7069124390357926 Si
5.4282201265104710 8.1402424196021617 2.7228454470933938 Si
8.1439483705679816 10.8715879224173371 2.7155773029480854 Si
10.8539148997170951 13.5732286358631065 2.7111108462543894 Si
0.0023706837335754 -0.0061168382571575 5.4384974597296249 Si
2.7219459164882216 2.7136262488631480 5.4235534224780819 Si
5.4321702523036182 5.4372264018885215 5.4232611923128928 Si
8.1441561958954356 8.1471822338840791 5.4212402561938546 Si
10.8687196320335495 10.8551982692909910 5.4280209345464394 Si
13.5765208955748680 13.5871486406634308 5.4290144241651745 Si
2.7189454693670725 -0.0092862989022330 8.1451133235646811 Si
5.4304729730296621 2.7213401280351799 8.1383396602791720 Si
8.1509593789227122 5.4395754519093291 8.1441797857242175 Si
10.8599126084015829 8.1368845024372831 8.1441824164697589 Si
13.5754780146516438 10.8657602872678858 8.1554527144836424 Si
5.4331676235424791 0.0073525188243185 10.8554951102459967 Si
8.1368875706768868 2.7139337570852424 10.8644810874034885 Si
10.8583701230585685 5.4400710828498253 10.8598153378155331 Si
13.5860586012254885 8.1501634284763949 10.8586412851793543 Si
8.1371465312404574 0.0035669190071950 13.5762854559327852 Si
10.8548125303113210 2.7215515397859633 13.5737912257825091 Si
13.5797811882377655 5.4373122966673000 13.5847051732094126 Si
-0.0060819420425861 10.8590478738887839 0.0074077903342380 Si
2.7207897158224577 13.5762230725036499 0.0083920711847770 Si
-0.0027767449711834 8.1436894326207057 2.7062659632166355 Si
2.7167144321274459 10.8717634403114332 2.7165595981862221 Si
5.4253184756964616 13.5824354017052364 2.7089421393249462 Si
0.0041444218560848 5.4359727544821732 5.4233608165860288 Si
2.7101622455958037 8.1547878099937172 5.4323057468970921 Si
5.4276188258546956 10.8665563199686996 5.4391489001190836 Si
8.1370947200299142 13.5737777812849139 5.4308732328452036 Si
-0.0044710106535740 2.7076872513152557 8.1508251175163906 Si
2.7145755209102203 5.4302591823898867 8.1563604772606357 Si
5.4243719910328227 8.1525361802745540 8.1420223560579643 Si
8.1451454450092271 10.8585157447986074 8.1371024705279602 Si
10.8705872521337703 13.5724425751577762 8.1468753726696352 Si
-0.0035968894797204 0.0043147900992407 10.8701731476761321 Si
2.7193468262000664 2.7070098457446323 10.8582462176709029 Si
5.4252479660737656 5.4242494823106346 10.8571471196312750 Si
8.1428968381654023 8.1452972515908630 10.8526112833182626 Si
10.8531164011007473 10.8572453442269374 10.8629874603486911 Si
13.5675833974282334 13.5760870221064529 10.8603297668888565 Si
2.7099172360118415 -0.0036166701906246 13.5698896171651420 Si
5.4327928623106851 2.7223082132611416 13.5844397756532960 Si
8.1414328598118288 5.4260276208106379 13.5845058288057956 Si
10.8710206553128277 8.1495539103029557 13.5800252013095903 Si
13.5784394463499858 10.8600805367705746 13.5871503008917074 Si
-0.0076128313831903 13.5731874857951631 2.7105242906452389 Si
-0.0028043713817602 10.8530680205216878 5.4271907926836533 Si
2.7165464776840023 13.5871506075359516 5.4291363206250800 Si
-0.0062865507382321 8.1398866407172470 8.1506355982597807 Si
2.7222687245309123 10.8600006357721828 8.1535128574004201 Si
5.4219752341141803 13.5800431442395624 8.1499370625866145 Si
-0.0044127980711395 5.4387028854002777 10.8664188473257184 Si
2.7143960086293006 8.1500296050813752 10.8711651281604826 Si
5.4343629838328464 10.8663641505012674 10.8536281863138750 Si
8.1365476481199117 13.5759379962121027 10.8612893119040166 Si
0.0064588240589814 2.7137712662293709 13.5848168333099402 Si
2.7228981984240228 5.4373341458780393 13.5753405942966499 Si
5.4220069813224461 8.1508795155447409 13.5769510799655464 Si
8.1528869144780476 10.8586012440178248 13.5842569960946928 Si
10.8521177945315479 13.5794481144810621 13.5774782110465413 Si
-0.0039585288497953 13.5707652877317049 8.1528000884759653 Si
-0.0056693147028601 10.8700749436255890 10.8629144789398282 Si
2.7183219131754197 13.5757181332243775 10.8524580786987546 Si
0.0041277229211958 8.1407388953774937 13.5844904843620782 Si
2.7212351524818206 10.8583244770674554 13.5700240627028883 Si
5.4351039538827868 13.5738512497303763 13.5689888297669423 Si
0.0039533156505020 13.5702990174317133 13.5715182290413399 Si
12.2110419734349644 1.3626069867545991 1.3561866867242756 Si
14.9308908258351014 4.0747898492471846 1.3488106059937768 Si
14.9379661230797733 1.3611571817246151 4.0642591424051728 Si
6.7848742372849085 1.3597213330602591 1.3667665328304373 Si
9.5132554319045948 4.0734084933719705 1.3535805568952648 Si
12.2232715867189849 6.7797961489686882 1.3605190985611886 Si
14.9377228303607410 9.5092074311837056 1.3659676181497189 Si
9.5124972873666866 1.3529748501711492 4.0760140149757662 Si
12.2153267223081379 4.0685740927350400 4.0809521623786642 Si
14.9343851816900290 6.7787376045888639 4.0738984951765636 Si
12.2146825606625633 1.3523781306888603 6.7955231226307813 Si
14.9328775526967839 4.0776344845304937 6.7973737571551052 Si
14.9265828258610682 1.3624498186013134 9.5019177923392739 Si
1.3548446060550958 1.3568429081934399 1.3482069769228224 Si
4.0644842969825961 4.0764990949859126 1.3541296245190637 Si
6.7957751731740244 6.7907207904258913 1.3644925439689519 Si
9.4974747504361190 9.5073979200993204 1.3510437669195121 Si
12.2123364537693675 12.2251687323980356 1.3537249955330211 Si
14.9278888730832886 14.9344274760539548 1.3508563695433542 Si
4.0689532534625537 1.3573178608466503 4.0822503494075892 Si
6.7848542781278010 4.0659578858185910 4.0789288785001485 Si
9.5036800910697750 6.7819533750883396 4.0805894128568472 Si
12.2258600740014423 9.5060833800832416 4.0656237061233558 Si
14.9295311790554450 12.2184733964469601 4.0814279561304323 Si
6.7961592163883155 1.3510947283778489 6.7889043856612847 Si
9.4993530709310523 4.0782922111376987 6.7958335427363412 Si
12.2109599410395280 6.7925279286685738 6.7918420329495630 Si
14.9405515766624184 9.5026565205863758 6.7804322912766573 Si
9.5028271346183928 1.3514785136012064 9.4964786280229969 Si
12.2259637389583524 4.0661675171222962 9.5009458376156282 Si
14.9280649906970790 6.7875412493673473 9.4971611628339829 Si
12.2170316096513325 1.3549107399282203 12.2288689009222651 Si
14.9353554569473062 4.0651552229338028 12.2137196238437848 Si
14.9316028549784736 1.3613471747232082 14.9264723240634947 Si
1.3642094134419465 6.7885733776328179 1.3501150783057236 Si
4.0798214544738434 9.4967337855278799 1.3588032964416661 Si
6.7938278651828430 12.2192198121212403 1.3663050073751117 Si
9.5090502997990516 14.9270758989927277 1.3543430254643329 Si
1.3492151539428221 4.0732309373927889 4.0679809344842894 Si
4.0655360472763995 6.7834058160168160 4.0768423605873396 Si
6.7900180422173682 9.5122064849664643 4.0790024881922493 Si
9.5043223912366575 12.2293109594860230 4.0706829513515812 Si
12.2227327808388395 14.9402515782027017 4.0652119305355310 Si
1.3648305868566133 1.3529103949894101 6.7938243449520686 Si
4.0672931488787363 4.0674447292734826 6.7943172516064330 Si
6.7978445826149887 6.7848757016280556 6.7899595185354853 Si
9.5026442368784316 9.5133710838195071 6.7922787200061201 Si
12.2197032694874483 12.2264842441452455 6.7813993061919788 Si
14.9253903431028210 14.9369041671133118 6.7901940172488224 Si
4.0757904494446775 1.3488499960193525 9.5003721900316656 Si
6.7918398843342995 4.0816013228713164 9.5085998555010161 Si
9.5038733680643013 6.7790454873720831 9.5067984050069274 Si
12.2265838835505143 9.5006913400168589 9.5104631986866757 Si
14.9264863421562630 12.2150435642861925 9.5020446814261810 Si
6.7929268095398943 1.3667239457365110 12.2185096491015237 Si
9.5139975345347629 4.0717404736128575 12.2185861988944549 Si
12.2208554367561870 6.7812343998531928 12.2261924926208039 Si
14.9288672362397428 9.5057764251111667 12.2119960389944389 Si
9.5055315663202506 1.3676004976434732 14.9341922093425019 Si
12.2106038877870819 4.0767635030324678 14.9327074578278616 Si
14.9301224276586080 6.7866831977266751 14.9266814887662775 Si
1.3534780449898109 12.2175380383840491 1.3489369713828807 Si
4.0786408215082419 14.9432302162455084 1.3555843607658327 Si
1.3503174214383276 9.5104347407483445 4.0708457659351920 Si
4.0716286519792861 12.2293542847658365 4.0749662158440456 Si
6.7852614763414199 14.9338735271678456 4.0825252497663973 Si
1.3629386858179016 6.7846633609991116 6.7962210231723947 Si
4.0701931918288317 9.5130732611761548 6.7852989732658981 Si
6.7823510124405253 12.2271918398641066 6.7870199045378747 Si
9.5138622688527992 14.9374797738334646 6.7881302758092179 Si
1.3665988024098650 4.0688625763597575 9.5057610881032470 Si
4.0733383346221865 6.7900219418974057 9.4942527355995949 Si
6.7850937370423763 9.5050513052948062 9.4948729955485831 Si
9.5141230900907328 12.2201821091787881 9.5034624672252335 Si
12.2292446099228691 14.9325137261937897 9.5051370838258702 Si
1.3613400068385797 1.3558255111010094 12.2287680116465580 Si
4.0682969436784937 4.0656925157587143 12.2152457870015336 Si
6.7904002896173647 6.7936270221495612 12.2111129781564376 Si
9.5124027994744154 9.5067978394165991 12.2146222780976217 Si
12.2253905592411147 12.2142336486168634 12.2134974104569078 Si
14.9402812583972526 14.9373662869526456 12.2113789056278481 Si
4.0795222644981042 1.3652947933527921 14.9333591634215583 Si
6.7961968335385636 4.0680794872086441 14.9392672670803108 Si
9.5007174249655186 6.7966424860572703 14.9400974428118296 Si
12.2129151667352840 9.5091624697051600 14.9405724027853655 Si
14.9378115453465217 12.2139311664304202 14.9273566691992681 Si
1.3546633619418151 14.9317147942265187 4.0821009909110622 Si
1.3589989054212233 12.2131520343503031 6.7811809967082564 Si
4.0782014483576718 14.9325331196369948 6.7804136138981601 Si
1.3567777130103538 9.5021449050555393 9.5139097108612578 Si
4.0703150431696500 12.2228157361920520 9.4951345678655219 Si
6.7912738580136418 14.9401643683425078 9.5123959305411034 Si
1.3500752770569355 6.7950361101801295 12.2186447823397053 Si
4.0723054831998713 9.5035031225681728 12.2295744281936987 Si
6.7815043951123020 12.2191318244929139 12.2126986747065462 Si
9.5059171319472497 14.9447926405532971 12.2214308615360441 Si
1.3479574514255195 4.0751908225799465 14.9357734762867267 Si
4.0708783843236249 6.7840441605260660 14.9436559947497809 Si
6.7823292215840203 9.4975776864854975 14.9391389781837933 Si
9.4980365691666009 12.2141605720923252 14.9408112921632430 Si
12.2156343707134951 14.9405478524789892 14.9424902977300853 Si
1.3491383286802727 14.9323796959668176 9.5084736523668703 Si
1.3579031415221181 12.2296319225149883 12.2193475319361955 Si
4.0652558598395601 14.9319591560119918 12.2144656242232426 Si
1.3487496650917206 9.5035561854246495 14.9307707024116976 Si
4.0787798193279423 12.2227281375420489 14.9428230716445185 Si
6.7911144388965283 14.9304035098418026 14.9266310272928955 Si
1.3667581020650799 14.9361990189649489 14.9392896060462821 Si
