NaCl lattice : 3 x 3 x 3 cells
1.0
0.0000000000000000 2.8199999999999998 2.8199999999999998
2.8199999999999998 0.0000000000000000 2.8199999999999998
2.8199999999999998 2.8199999999999998 0.0000000000000000
Na Cl
1 1
direct
1.0000000000000000 1.0000000000000000 1.0000000000000000 Na
0.5000000000000000 0.4999999999999999 0.5000000000000000 Cl
