Si
5.43095
0  0.5 0.5
0.5 0  0.5
0.5 0.5  0
Si 
2 
Direct
0 0 0.0000
0.25 0.25 0.250
